Solver command line: ['C:\\Program Files\\IBM\\ILOG\\CPLEX_Studio2211\\cplex\\bin\\x64_win64\\cplex.exe']


Welcome to IBM(R) ILOG(R) CPLEX(R) Interactive Optimizer 22.1.1.0
  with Simplex, Mixed Integer & Barrier Optimizers
5725-A06 5725-A29 5724-Y48 5724-Y49 5724-Y54 5724-Y55 5655-Y21
Copyright IBM Corp. 1988, 2022.  All Rights Reserved.

Type 'help' for a list of available commands.
Type 'help' followed by a command name for more
information on commands.

CPLEX> Logfile 'cplex.log' closed.
Logfile 'C:\Users\wangy\Documents\GitHub\re_optimization\result_site_specific\tmpmyqro6jp.cplex.log' open.
CPLEX> Problem 'C:\Users\wangy\Documents\GitHub\re_optimization\result_site_specific\tmpemnyai4s.pyomo.lp' read.
Read time = 0.33 sec. (9.13 ticks)
CPLEX> Problem name         : C:\Users\wangy\Documents\GitHub\re_optimization\result_site_specific\tmpemnyai4s.pyomo.lp
Objective sense      : Minimize
Variables            :   65769  [Nneg: 35068,  Free: 8792,  Binary: 9,
                                 Other: 21900]
Objective nonzeros   :      17
Linear constraints   :   87665  [Less: 46741,  Greater: 5,  Equal: 40919]
  Nonzeros           :  225061
  RHS nonzeros       :    3661

Variables            : Min LB: 0.000000         Max UB: 1.000000       
Objective nonzeros   : Min   : 1.000000         Max   : 1.000000       
Linear constraints   :
  Nonzeros           : Min   : 0.001734998      Max   : 100000.0       
  RHS nonzeros       : Min   : 0.06900000       Max   : 100000.0       
CPLEX> Version identifier: 22.1.1.0 | 2022-11-27 | 9160aff4d
Tried aggregator 3 times.
MIP Presolve eliminated 53110 rows and 32667 columns.
Aggregator did 10730 substitutions.
Reduced MIP has 23825 rows, 22372 columns, and 71615 nonzeros.
Reduced MIP has 5 binaries, 0 generals, 0 SOSs, and 0 indicators.
Presolve time = 0.22 sec. (226.75 ticks)
Found incumbent of value 211704.857616 after 0.31 sec. (327.81 ticks)
Probing time = 0.00 sec. (1.24 ticks)
Tried aggregator 1 time.
Detecting symmetries...
Reduced MIP has 23825 rows, 22372 columns, and 71615 nonzeros.
Reduced MIP has 5 binaries, 0 generals, 0 SOSs, and 0 indicators.
Presolve time = 0.05 sec. (46.03 ticks)
Probing time = 0.00 sec. (1.16 ticks)
MIP emphasis: balance optimality and feasibility.
MIP search method: dynamic search.
Parallel mode: deterministic, using up to 16 threads.
Root relaxation solution time = 1.22 sec. (791.79 ticks)

        Nodes                                         Cuts/
   Node  Left     Objective  IInf  Best Integer    Best Bound    ItCnt     Gap

*     0+    0                       211704.8576    -6199.1219           102.93%
      0     0     5140.7251     1   211704.8576     5140.7251       61   97.57%
*     0+    0                         6745.4181     5140.7251            23.79%
*     0+    0                         5683.0476     5140.7251             9.54%
      0     0        cutoff           5683.0476                    951    0.00%
Elapsed time = 1.98 sec. (1725.14 ticks, tree = 0.01 MB, solutions = 3)

Root node processing (before b&c):
  Real time             =    2.00 sec. (1728.30 ticks)
Parallel b&c, 16 threads:
  Real time             =    0.00 sec. (0.00 ticks)
  Sync time (average)   =    0.00 sec.
  Wait time (average)   =    0.00 sec.
                          ------------
Total (root+branch&cut) =    2.00 sec. (1728.30 ticks)

Solution pool: 3 solutions saved.

MIP - Integer optimal solution:  Objective =  5.6830475975e+03
Solution time =    2.00 sec.  Iterations = 951  Nodes = 0
Deterministic time = 1728.49 ticks  (864.25 ticks/sec)

CPLEX> Incumbent solution written to file 'C:\Users\wangy\Documents\GitHub\re_optimization\result_site_specific\tmpg27y9spa.cplex.sol'.
CPLEX> 
